# Solution for model GasLib-40
# Objective value = 1.2655351129188151e+01
loadshed[innode_1] 0
loadshed[innode_2] 0
loadshed[innode_3] 0
loadshed[innode_4] 0
loadshed[innode_5] 0
loadshed[innode_6] 0
loadshed[innode_7] 0
loadshed[innode_8] 0
loadshed[source_1] -0.246029895090224
loadshed[source_2] 1.4073192679703206e-01
loadshed[source_3] 1.8534938769138454e-01
loadshed[sink_1] 0
loadshed[sink_2] 0
loadshed[sink_3] 0
loadshed[sink_4] 0
loadshed[sink_5] 0
loadshed[sink_6] 0
loadshed[sink_7] 0
loadshed[sink_8] 0
loadshed[sink_9] 0
loadshed[sink_10] 0
loadshed[sink_11] 0
loadshed[sink_12] 7.7383038751723721e-01
loadshed[sink_13] 0
loadshed[sink_14] 0
loadshed[sink_15] 0
loadshed[sink_16] 0
loadshed[sink_17] 0
loadshed[sink_18] 0
loadshed[sink_19] 0
loadshed[sink_20] 0
loadshed[sink_21] 0
loadshed[sink_22] 0
loadshed[sink_23] 0
loadshed[sink_24] 0
loadshed[sink_25] 0
loadshed[sink_26] 0
loadshed[sink_27] 0
loadshed[sink_28] 0
loadshed[sink_29] 0
flow[source_1,sink_3] 1.9698521223422881e+02
flow[innode_1,sink_16] 1.6354166666666970e+01
flow[innode_6,sink_13] -1.4309174925039226e+01
flow[sink_13,sink_14] -3.0663341591705894e+01
flow[sink_14,sink_10] -4.7017508258372558e+01
flow[sink_25,sink_26] 1.6724048220414625e+02
flow[sink_26,sink_9] 1.5088631553747933e+02
flow[sink_9,sink_18] 1.3453214887081268e+02
flow[sink_26,sink_4] 0
flow[sink_4,sink_20] -2.4101103691780089e+01
flow[sink_18,sink_6] 1.1817798220414602e+02
flow[sink_25,innode_8] -1.6427687890089246e+02
flow[sink_6,sink_7] 6.9115482204145337e+01
flow[sink_6,sink_22] 3.2708333333333641e+01
flow[sink_7,sink_24] 3.6407148870811852e+01
flow[sink_22,sink_1] 1.6354166666666970e+01
flow[sink_24,sink_21] 2.0052982204145184e+01
flow[sink_21,sink_12] 3.6988155374785161e+00
flow[sink_7,sink_5] 1.6354166666667368e+01
flow[sink_5,sink_17] 0
flow[sink_17,sink_4] -7.7469370251134215e+00
flow[sink_17,sink_8] -8.6072296415532463e+00
flow[sink_3,sink_23] 16.3541666666697
flow[sink_8,sink_20] -2.4961396308219914e+01
flow[sink_25,sink_20] 6.5416666666666671e+01
flow[sink_25,sink_15] -7.0425261711547435e+01
flow[sink_15,sink_29] -1.0313359504489836e+02
flow[sink_29,sink_28] 1.6354166666667879e+01
flow[sink_29,sink_2] 0
flow[sink_2,sink_15] -1.6354166666684250e+01
flow[sink_29,innode_7] -1.3584192837823309e+02
flow[innode_4,sink_19] 5.0321969307615433e+01
flow[sink_19,innode_3] 4.6886638476589852e+01
flow[innode_4,innode_5] 7.8466372284090340e+01
flow[sink_27,innode_5] -7.8466372284090340e+01
flow[sink_27,sink_19] 6.2112205617423669e+01
flow[sink_10,sink_11] 3.2708333333333641e+01
flow[sink_10,innode_2] -4.9193369781782948e+01
flow[sink_10,innode_3] -4.6886638476589852e+01
flow[innode_6,sink_25] 1.4309174925039226e+01
flow[sink_11,innode_1] 1.6354166666666970e+01
flow[sink_19,innode_2] 4.9193369781782948e+01
flow[source_3,innode_4] 1.2878834159170577e+02
flow[source_2,innode_7] 1.3584192837823309e+02
flow[sink_3,innode_8] 1.6427687890089246e+02
pressure[innode_1] 76.2228047263979
pressure[innode_2] 78.9745788022399
pressure[innode_3] 7.8870753650669357e+01
pressure[innode_4] 81.01325
pressure[innode_5] 8.0959276691598376e+01
pressure[innode_6] 7.4016885161032548e+01
pressure[innode_7] 81.01325
pressure[innode_8] 80.3548036865796
pressure[source_1] 81.01325
pressure[source_2] 81.01325
pressure[source_3] 81.01325
pressure[sink_1] 4.3082745084263230e+01
pressure[sink_2] 7.4305123554479835e+01
pressure[sink_3] 80.3548036865796
pressure[sink_4] 56.6535828175245
pressure[sink_5] 3.7433461843467967e+01
pressure[sink_6] 45.1838226946506
pressure[sink_7] 4.4235031870362683e+01
pressure[sink_8] 5.6682293564568432e+01
pressure[sink_9] 5.3207300802504491e+01
pressure[sink_10] 7.6374506034001442e+01
pressure[sink_11] 76.2228047263979
pressure[sink_12] 1.01325
pressure[sink_13] 7.4095769251109019e+01
pressure[sink_14] 7.4150643912826538e+01
pressure[sink_15] 7.4358516304246280e+01
pressure[sink_16] 7.5201154891580217e+01
pressure[sink_17] 5.6357520429159884e+01
pressure[sink_18] 4.8339526681594876e+01
pressure[sink_19] 78.9745788022399
pressure[sink_20] 58.4217518483695
pressure[sink_21] 2.3294910051977582e+00
pressure[sink_22] 4.4146514226618237e+01
pressure[sink_23] 8.0190085674919814e+01
pressure[sink_24] 2.5515591516661691e+00
pressure[sink_25] 7.4016885161032548e+01
pressure[sink_26] 6.2238236214283141e+01
pressure[sink_27] 8.0308150791906471e+01
pressure[sink_28] 7.7084728302408109e+01
pressure[sink_29] 7.7380010576025285e+01
interdiction[source_1,sink_3] 0
interdiction[innode_1,sink_16] 0
interdiction[innode_6,sink_13] 0
interdiction[sink_13,sink_14] 0
interdiction[sink_14,sink_10] 0
interdiction[sink_25,sink_26] 0
interdiction[sink_26,sink_9] 0
interdiction[sink_9,sink_18] 0
interdiction[sink_26,sink_4] 1
interdiction[sink_4,sink_20] 0
interdiction[sink_18,sink_6] 0
interdiction[sink_25,innode_8] 0
interdiction[sink_6,sink_7] 0
interdiction[sink_6,sink_22] 0
interdiction[sink_7,sink_24] 0
interdiction[sink_22,sink_1] 0
interdiction[sink_24,sink_21] 0
interdiction[sink_21,sink_12] 0
interdiction[sink_7,sink_5] 0
interdiction[sink_5,sink_17] 1
interdiction[sink_17,sink_4] 0
interdiction[sink_17,sink_8] 0
interdiction[sink_3,sink_23] 0
interdiction[sink_8,sink_20] 0
interdiction[sink_25,sink_20] 0
interdiction[sink_25,sink_15] 0
interdiction[sink_15,sink_29] 0
interdiction[sink_29,sink_28] 0
interdiction[sink_29,sink_2] 1
interdiction[sink_2,sink_15] 0
interdiction[sink_29,innode_7] 0
interdiction[innode_4,sink_19] 0
interdiction[sink_19,innode_3] 0
interdiction[innode_4,innode_5] 0
interdiction[sink_27,innode_5] 0
interdiction[sink_27,sink_19] 0
interdiction[sink_10,sink_11] 0
interdiction[sink_10,innode_2] 0
interdiction[sink_10,innode_3] 0
interdiction[innode_6,sink_25] 0
interdiction[sink_11,innode_1] 0
interdiction[sink_19,innode_2] 0
interdiction[source_3,innode_4] 0
interdiction[source_2,innode_7] 0
interdiction[sink_3,innode_8] 0
WCcheckFlow[source_1,sink_3] 39
WCcheckFlow[innode_1,sink_16] 1
WCcheckFlow[innode_6,sink_13] 13
WCcheckFlow[sink_13,sink_14] 12
WCcheckFlow[sink_14,sink_10] 11
WCcheckFlow[sink_25,sink_26] 11
WCcheckFlow[sink_26,sink_9] 10
WCcheckFlow[sink_9,sink_18] 9
WCcheckFlow[sink_26,sink_4] 0
WCcheckFlow[sink_4,sink_20] -3
WCcheckFlow[sink_18,sink_6] 8
WCcheckFlow[sink_25,innode_8] -36
WCcheckFlow[sink_6,sink_7] 5
WCcheckFlow[sink_6,sink_22] 2
WCcheckFlow[sink_7,sink_24] 3
WCcheckFlow[sink_22,sink_1] 1
WCcheckFlow[sink_24,sink_21] 2
WCcheckFlow[sink_21,sink_12] 1
WCcheckFlow[sink_7,sink_5] 1
WCcheckFlow[sink_5,sink_17] 0
WCcheckFlow[sink_17,sink_4] -2
WCcheckFlow[sink_17,sink_8] 1
WCcheckFlow[sink_3,sink_23] 1
WCcheckFlow[sink_8,sink_20] 0
WCcheckFlow[sink_25,sink_20] 4
WCcheckFlow[sink_25,sink_15] 6
WCcheckFlow[sink_15,sink_29] 4
WCcheckFlow[sink_29,sink_28] 1
WCcheckFlow[sink_29,sink_2] 0
WCcheckFlow[sink_2,sink_15] -1
WCcheckFlow[sink_29,innode_7] 2
WCcheckFlow[innode_4,sink_19] -4
WCcheckFlow[sink_19,innode_3] -5
WCcheckFlow[innode_4,innode_5] 2
WCcheckFlow[sink_27,innode_5] -1
WCcheckFlow[sink_27,sink_19] 0
WCcheckFlow[sink_10,sink_11] 3
WCcheckFlow[sink_10,innode_2] 1
WCcheckFlow[sink_10,innode_3] 6
WCcheckFlow[innode_6,sink_25] -14
WCcheckFlow[sink_11,innode_1] 2
WCcheckFlow[sink_19,innode_2] 0
WCcheckFlow[source_3,innode_4] -1
WCcheckFlow[source_2,innode_7] -1
WCcheckFlow[sink_3,innode_8] 37
